      10
 i =        0, time =        0.000, E =       -26.0458157747
  H        -7.0023595543        8.9052890077        9.9596043055
  C        -7.2085352042        9.9919371916       10.0624115315
  H        -8.0873932749       10.3847568951        9.4714061846
  H        -6.6361143167       11.7823827353       10.9381446260
  C        -6.5161842174       10.6712382569       10.9144028836
  H        -5.1265228966        9.0523815522       11.3561053550
  C        -5.4187903114       10.0494880566       11.7172583524
  H        -5.0373456260       11.5599629534       13.1088885625
  H        -4.0933217633        9.9104354135       13.4215660667
  C        -4.8233476341       10.5376213823       12.8112684130
